unsat
(:max-memory          18.43
 :memory              18.34
 :nlsat-arith-var     3
 :nlsat-atoms         10
 :nlsat-bool-var      1
 :nlsat-clauses       9
 :nlsat-conflicts     2
 :nlsat-propagations  7
 :nlsat-stages        2
 :num-allocs          50794
 :rlimit-count        1343
 :solve-eqs-elim-vars 1
 :solve-eqs-steps     4
 :time                0.00
 :total-time          0.01)
